Version identifier: 22.1.0.0 | 2022-03-09 | 1a383f8ce
CPXPARAM_Threads                                 1
CPXPARAM_MIP_Strategy_VariableSelect             3
CPXPARAM_TimeLimit                               599.99998219300005
1 of 1 MIP starts provided solutions.
MIP start 'm1' defined initial solution with objective 1.0000.
Tried aggregator 1 time.
MIP Presolve eliminated 18 rows and 0 columns.
MIP Presolve modified 7 coefficients.
Reduced MIP has 3002 rows, 6000 columns, and 90011 nonzeros.
Reduced MIP has 6000 binaries, 0 generals, 0 SOSs, and 0 indicators.
Presolve time = 0.06 sec. (48.86 ticks)
Probing time = 0.00 sec. (4.17 ticks)
Tried aggregator 1 time.
Detecting symmetries...
Reduced MIP has 3002 rows, 6000 columns, and 90011 nonzeros.
Reduced MIP has 6000 binaries, 0 generals, 0 SOSs, and 0 indicators.
Presolve time = 0.06 sec. (45.78 ticks)
Probing time = 0.01 sec. (4.17 ticks)
Clique table members: 895.
MIP emphasis: balance optimality and feasibility.
MIP search method: dynamic search.
Parallel mode: none, using 1 thread.
Root relaxation solution time = 5.30 sec. (4946.35 ticks)

        Nodes                                         Cuts/
   Node  Left     Objective  IInf  Best Integer    Best Bound    ItCnt     Gap

*     0+    0                            1.0000     6000.0000              --- 
      0     0      300.0000  1357        1.0000      300.0000    11580     --- 
*     0+    0                          287.0000      300.0000             4.53%
*     0+    0                          292.0000      300.0000             2.74%
*     0+    0                          295.0000      300.0000             1.69%
      0     0        cutoff            295.0000      300.0000    11580    1.69%
Detecting symmetries...
      0     2      300.0000   112      295.0000      300.0000    11580    1.69%
Elapsed time = 26.93 sec. (26110.96 ticks, tree = 0.01 MB, solutions = 4)
      1     3      300.0000   930      295.0000      300.0000    30328    1.69%
      2     4      300.0000   775      295.0000      300.0000    37913    1.69%
      3     5      300.0000  1211      295.0000      300.0000    49815    1.69%
      4     6      300.0000   816      295.0000      300.0000    50444    1.69%
      5     7      300.0000   812      295.0000      300.0000    50449    1.69%
      6     8      300.0000   814      295.0000      300.0000    50516    1.69%
      7     9      300.0000  1344      295.0000      300.0000    60632    1.69%
      8    10      300.0000   642      295.0000      300.0000    67634    1.69%
      9    11      300.0000   641      295.0000      300.0000    67642    1.69%
     10    12      300.0000   651      295.0000      300.0000    67714    1.69%
Elapsed time = 56.82 sec. (54641.63 ticks, tree = 0.14 MB, solutions = 4)
     11    13      300.0000   744      295.0000      300.0000    78608    1.69%
     13    15      300.0000   689      295.0000      300.0000    87717    1.69%
     15    17      300.0000   641      295.0000      300.0000    87864    1.69%
     17    19      300.0000   646      295.0000      300.0000    93569    1.69%
     19    21      300.0000   616      295.0000      300.0000    93686    1.69%
     20    22      300.0000   679      295.0000      300.0000   101690    1.69%
     21    23      300.0000   790      295.0000      300.0000   112602    1.69%
     23    25      300.0000   667      295.0000      300.0000   114093    1.69%
     26    28      300.0000   664      295.0000      300.0000   114197    1.69%
     29    31      300.0000   818      295.0000      300.0000   127058    1.69%
Elapsed time = 90.68 sec. (86866.03 ticks, tree = 0.60 MB, solutions = 4)
     30    32      300.0000   669      295.0000      300.0000   128044    1.69%
     32    34      300.0000   769      295.0000      300.0000   147070    1.69%
     35    37      300.0000   665      295.0000      300.0000   148091    1.69%
     36    38      300.0000   696      295.0000      300.0000   149945    1.69%
     39    41      300.0000   670      295.0000      300.0000   150183    1.69%
     41    43      300.0000   774      295.0000      300.0000   160100    1.69%
     43    45      300.0000   891      295.0000      300.0000   172215    1.69%
     44    46      300.0000   845      295.0000      300.0000   181226    1.69%
     45    47      300.0000   853      295.0000      300.0000   190295    1.69%
     46    48      300.0000   878      295.0000      300.0000   198862    1.69%
Elapsed time = 144.02 sec. (137371.57 ticks, tree = 1.03 MB, solutions = 4)
     47    49      300.0000  1124      295.0000      300.0000   209412    1.69%
     48    50      300.0000  1065      295.0000      300.0000   224942    1.69%
     50    52      300.0000  1041      295.0000      300.0000   227198    1.69%
     53    55      300.0000  1037      295.0000      300.0000   229281    1.69%
     55    57      300.0000  1028      295.0000      300.0000   230398    1.69%
     58    60      300.0000   984      295.0000      300.0000   231842    1.69%
     59    61      300.0000   985      295.0000      300.0000   234401    1.69%
     61    63      300.0000  1009      295.0000      300.0000   236092    1.69%
     64    66      300.0000   985      295.0000      300.0000   236254    1.69%
     66    68      300.0000   982      295.0000      300.0000   236780    1.69%
Elapsed time = 180.27 sec. (171442.33 ticks, tree = 1.47 MB, solutions = 4)
     68    70      300.0000   972      295.0000      300.0000   237650    1.69%
     71    73      300.0000   975      295.0000      300.0000   238282    1.69%
     73    75      300.0000   968      295.0000      300.0000   240289    1.69%
     75    77      300.0000   951      295.0000      300.0000   241579    1.69%
     77    79      300.0000   896      295.0000      300.0000   246229    1.69%
     79    81      300.0000   883      295.0000      300.0000   247586    1.69%
     81    83      300.0000   888      295.0000      300.0000   248859    1.69%
     83    85      300.0000   876      295.0000      300.0000   251218    1.69%
     85    87      300.0000   858      295.0000      300.0000   253187    1.69%
     88    90      300.0000   847      295.0000      300.0000   253398    1.69%
Elapsed time = 192.32 sec. (183460.00 ticks, tree = 2.06 MB, solutions = 4)
     90    92      300.0000   807      295.0000      300.0000   257779    1.69%
     93    95      300.0000   796      295.0000      300.0000   258253    1.69%
     96    98      300.0000   745      295.0000      300.0000   261786    1.69%
     98   100      300.0000   717      295.0000      300.0000   263487    1.69%
    100   102      300.0000   735      295.0000      300.0000   265113    1.69%
    103   105      300.0000   701      295.0000      300.0000   267806    1.69%
    105   107      300.0000   545      295.0000      300.0000   275754    1.69%
    108   110      300.0000   485      295.0000      300.0000   277888    1.69%
    111   113      300.0000   471      295.0000      300.0000   284197    1.69%
    114   116      300.0000   439      295.0000      300.0000   286883    1.69%
Elapsed time = 206.18 sec. (196807.60 ticks, tree = 2.73 MB, solutions = 4)
    117   119      300.0000   480      295.0000      300.0000   295052    1.69%
    120   122      299.0000   435      295.0000      300.0000   301313    1.69%
    124   126      300.0000   396      295.0000      300.0000   302304    1.69%
    127   129      300.0000   335      295.0000      300.0000   306610    1.69%
    131   133      300.0000   312      295.0000      300.0000   309621    1.69%
    134   136      300.0000   307      295.0000      300.0000   314895    1.69%
    136   138      300.0000   500      295.0000      300.0000   319205    1.69%
    140   142      300.0000   262      295.0000      300.0000   322108    1.69%
    143   145      300.0000   302      295.0000      300.0000   330580    1.69%
    146   148      300.0000   222      295.0000      300.0000   334097    1.69%
Elapsed time = 220.11 sec. (209435.24 ticks, tree = 3.55 MB, solutions = 4)
    147   149      300.0000   194      295.0000      300.0000   339779    1.69%
    150   152      300.0000   202      295.0000      300.0000   342786    1.69%
    154   156      300.0000   174      295.0000      300.0000   345649    1.69%
    158   160      300.0000   160      295.0000      300.0000   349282    1.69%
    160   162      300.0000   171      295.0000      300.0000   355408    1.69%
    164   166      300.0000   158      295.0000      300.0000   358340    1.69%
    168   170      300.0000   138      295.0000      300.0000   364066    1.69%
    171   173      300.0000   152      295.0000      300.0000   367085    1.69%
    175   177      300.0000   106      295.0000      300.0000   369949    1.69%
    178   180      300.0000    60      295.0000      300.0000   378555    1.69%
Elapsed time = 235.82 sec. (223372.27 ticks, tree = 4.37 MB, solutions = 4)
    180   182      300.0000    60      295.0000      300.0000   385929    1.69%
    182   184      300.0000    60      295.0000      300.0000   390700    1.69%
    184   186      300.0000    94      295.0000      300.0000   395067    1.69%
    185   187      300.0000    87      295.0000      300.0000   399688    1.69%
    187   189      300.0000    82      295.0000      300.0000   404812    1.69%
    189   191      300.0000    45      295.0000      300.0000   410176    1.69%
    192   194      300.0000    75      295.0000      300.0000   413768    1.69%
    196   198      300.0000    30      295.0000      300.0000   415755    1.69%
    199   201      300.0000    45      295.0000      300.0000   419175    1.69%
    201   203      300.0000    10      295.0000      300.0000   423735    1.69%
Elapsed time = 248.08 sec. (234349.58 ticks, tree = 4.96 MB, solutions = 4)
*   203     1      integral     0      300.0000      300.0000   425042    0.00%

Root node processing (before b&c):
  Real time             =   26.90 sec. (26076.64 ticks)
Sequential b&c:
  Real time             =  221.67 sec. (208715.77 ticks)
                          ------------
Total (root+branch&cut) =  248.56 sec. (234792.41 ticks)
Primal:	300
Dual:	300
Status:	Optimal
Time:	248.58
Sequence:
	1
	6
	0
	2
	11
	6
	6
	0
	11
	2
	5
	6
	16
	11
	0
	6
	14
	17
	7
	8
	5
	1
	2
	9
	0
	1
	7
	0
	5
	16
	1
	9
	0
	7
	1
	12
	18
	16
	11
	6
	15
	13
	17
	7
	6
	0
	1
	2
	18
	6
	11
	15
	2
	4
	1
	18
	10
	8
	19
	14
	13
	12
	19
	8
	14
	18
	1
	0
	2
	6
	11
	18
	15
	2
	1
	4
	9
	10
	3
	15
	4
	13
	11
	15
	6
	16
	13
	19
	12
	5
	16
	19
	13
	5
	12
	13
	19
	8
	14
	10
	19
	9
	16
	6
	11
	12
	4
	0
	1
	13
	15
	18
	11
	6
	16
	15
	11
	4
	14
	0
	1
	0
	7
	6
	11
	15
	16
	4
	11
	18
	15
	16
	1
	18
	18
	15
	0
	3
	6
	7
	12
	3
	8
	14
	9
	19
	10
	8
	14
	19
	4
	12
	2
	1
	4
	18
	15
	2
	1
	4
	9
	10
	3
	8
	6
	7
	0
	1
	0
	9
	14
	19
	10
	8
	18
	3
	14
	12
	8
	3
	7
	6
	12
	11
	2
	18
	6
	17
	14
	2
	4
	19
	10
	6
	16
	19
	9
	10
	14
	17
	4
	7
	12
	3
	12
	7
	4
	17
	14
	10
	9
	19
	8
	14
	10
	19
	9
	0
	14
	17
	6
	18
	2
	1
	8
	5
	7
	17
	14
	8
	14
	19
	8
	14
	16
	19
	5
	2
	6
	17
	7
	5
	8
	1
	2
	18
	6
	17
	5
	2
	18
	3
	12
	13
	15
	3
	18
	12
	13
	19
	10
	18
	12
	3
	13
	15
	18
	3
	12
	7
	12
	3
	9
	16
	5
	3
	15
	13
	8
	3
	6
	12
	7
	17
	4
	7
	14
	17
	12
	7
	18
	3
	12
	12
	7
	3
	18
	15
	14
	17
